
Gurobi 10.0.1 (linux64) logging started Sun Nov 26 15:39:51 2023

Set parameter LogFile to value "ArtificialInstance/ExperimentV2/S3T3K1/AdRo/gurobiDoRo50.txt"
Gurobi Optimizer version 10.0.1 build v10.0.1rc0 (linux64)

CPU model: AMD EPYC 7H12 64-Core Processor, instruction set [SSE2|AVX|AVX2]
Thread count: 128 physical cores, 128 logical processors, using up to 32 threads

Academic license 656792 - for non-commercial use only - registered to b.___@student.vu.nl
Optimize a model with 3055 rows, 2885 columns and 11379 nonzeros
Model fingerprint: 0x1570a66a
Variable types: 1 continuous, 2884 integer (2884 binary)
Coefficient statistics:
  Matrix range     [1e+00, 4e+01]
  Objective range  [1e+00, 2e+01]
  Bounds range     [1e+00, 1e+00]
  RHS range        [1e+00, 1e+00]
Presolve removed 1258 rows and 973 columns
Presolve time: 0.03s
Presolved: 1797 rows, 1912 columns, 7367 nonzeros
Variable types: 1 continuous, 1911 integer (1911 binary)
Found heuristic solution: objective 184.2927379

Root relaxation: objective 4.215681e+01, 332 iterations, 0.01 seconds (0.00 work units)

    Nodes    |    Current Node    |     Objective Bounds      |     Work
 Expl Unexpl |  Obj  Depth IntInf | Incumbent    BestBd   Gap | It/Node Time

H    0     0                      42.1568066    7.55953  82.1%     -    0s
     0     0          -    0        42.15681   42.15681  0.00%     -    0s

Explored 1 nodes (505 simplex iterations) in 0.07 seconds (0.04 work units)
Thread count was 32 (of 128 available processors)

Solution count 2: 42.1568 184.293 

Optimal solution found (tolerance 1.00e-04)
Best objective 4.215680656834e+01, best bound 4.215680656834e+01, gap 0.0000%
